width = 40;

n_circuits = 20;

circuit_x = array1d(1..20, [3, 3, 3, 3, 3, 3, 3, 3, 3, 3, 3, 4, 4, 4, 5, 5, 5, 5,
    5, 22]);

circuit_y = array1d(1..20, [3, 4, 5, 6, 7, 8, 9, 10, 12, 16, 40, 4, 14, 22, 3, 4,
    8, 12, 13, 40]);

opt_height = 40;

max_y = 40;

